mixintcount/benchmarks/random_v2l/3_3_11.in
12 5
#	x1	x2	x3;		0 = Real; 1 = Integer
	1	1	1
1	3	-5	-5	-2
1	8	0	2	-11
1	-7	-8	-8	-6
1	-3	10	-9	5
1	-1	-9	7	-1
1	1	-4	-10	5
1	1	0	0	11
1	-1	0	0	11
1	0	1	0	11
1	0	-1	0	11
1	0	0	1	11
1	0	0	-1	11
